63
150
119	1
117	2
116	2
115	2
113	2
112	2
109	2
108	1
107	2
105	1
104	5
103	1
102	3
101	4
100	1
99	2
98	1
93	1
92	2
91	1
90	1
89	1
88	2
84	1
82	1
81	1
80	1
78	3
77	1
76	2
72	1
70	1
69	1
68	1
67	2
66	2
65	2
64	1
63	1
62	1
61	2
60	3
59	1
56	3
53	2
52	1
50	2
48	1
46	1
44	1
41	1
34	1
31	1
28	1
27	1
26	2
25	1
23	3
22	1
21	1
20	3
18	1
16	1
